W=6;
H=3;

MAX_TIME=9;
MAX_TRACKS=4;

TARGET=(2,6);

TRAINS=[(2,2,RIGHT),(2,1,RIGHT)];
DECOYS=[];

INIT_POS=[
(1,3,CORNER_DR),
(1,5,CORNER_DL),
(2,1,STRAIGHT_RL),
(2,2,STRAIGHT_RL),
(2,3,ESWITCH_D_T_L),
(2,5,CORNER_TR),
(2,6,STRAIGHT_RL),
];
TUNNEL_PAIRS=[];

GATES=[];
ACTIVATIONS=[];

DSWITCHES=[];
STATIONS=[];
